NAME : 10_3_3_3_(11).dat
COMMENT : Henke, Speranza, Wäscher, 2015
TYPE : MCVRP
DIMENSION : 11
EDGE_WEIGHT_TYPE : DISTANCE_MATRIX
CAPACITY : 1000
VEHICLES : 3
PRODUCT TYPES : 3
COMPARTMENTS : 3
NODE_COORD_SECTION
1 50 50
2 51.38 79.15
3 21.02 59.7
4 22.74 95.11
5 21.04 12.35
6 34.15 25.59
7 91.19 28.72
8 31.66 84.42
9 91.51 43.07
10 26.87 80.62
11 33.54 92.12
DEMAND_SECTION
1 0 0 0
2 181 90 16
3 110 51 64
4 39 77 6
5 17 27 44
6 2 29 55
7 213 6 7
8 80 35 54
9 90 16 9
10 11 73 37
11 13 48 10
DEPOT_SECTION
1
EOF